1 21
2 20
3 6
4 12
5 1
6 9
7 2
8 17
9 19
10 19
11 3
12 1
13 3
14 11
15 8
16 11
17 20
18 9
19 17
20 12
21 3
22 18
23 3
24 17
25 11
26 5
27 2
28 14
29 0
30 0
31 0
32 20
33 0
34 0
35 0
36 0
37 0
38 0
39 19
40 21
41 21
42 1
43 21
44 20
45 1
46 0
47 17
48 2
49 1
50 21
51 19
52 10
53 10
54 9
55 13
56 12
57 4
58 6
59 18
60 12
61 8
62 17
63 10
64 3
65 17
66 18
67 5
68 16
69 2
70 6
71 18
72 18
73 8
74 0
75 15
76 20
77 1
78 16
79 7
80 7
81 6
82 9
83 11
84 11
85 18
86 18
87 7
88 17
89 0
90 20
91 8
92 19
93 4
94 13
95 5
96 9
97 11
98 8
99 7
100 14
101 13
102 3
103 4
104 4
105 18
106 20
107 21
108 21
109 21
110 21
111 21
112 14
113 14
114 14
115 14
116 14
117 16
118 14
119 4
120 13
121 12
122 19
123 9
124 5
125 17
126 18
127 17
128 1
129 1
130 15
131 15
132 15
133 15
134 16
135 17
136 2
137 20
138 2
139 6
140 5
141 11
142 8
143 6
144 6
145 5
146 11
147 19
148 16
149 10
150 16
151 10
152 4
153 4
154 4
155 8
156 8
157 1
158 2
159 10
160 19
161 7
162 11
163 7
164 6
165 13
166 10
167 1
168 4
169 15
170 11
171 7
172 1
173 9
174 12
175 4
176 13
177 8
178 13
179 9
180 18
181 12